22191
24,18,79,53,88,16,94,22,70,66,26,65,4,19,97,56,80,31,89,42,8,92,75,90,49,6,63,1,93,28,67,54,40,64,69,81,25,61,58,51,87,57,7,9,85,68,73,50,44,2,82,95,13,76,33,37,5,52,78,96,39,30,48,100,41,71,14,3,43,46,29,34,83,55,12,20,27,86,35,62,60,77,23,98,45,91,47,32,11,15,17,59,74,21,72,10,84,36,99,38,24
